n = 310;
rows = 642;
supports = [|
  {1},2..13,
 |{1},299..310,
 |{2},{1},
 |{2},3..14,
 |{2},300..310,
 |{3},1..2,
 |{3},4..15,
 |{3},301..310,
 |{4},1..3,
 |{4},5..16,
 |{4},302..310,
 |{5},1..4,
 |{5},6..17,
 |{5},303..310,
 |{6},1..5,
 |{6},7..18,
 |{6},304..310,
 |{7},1..6,
 |{7},8..19,
 |{7},305..310,
 |{8},1..7,
 |{8},9..20,
 |{8},306..310,
 |{9},1..8,
 |{9},10..21,
 |{9},307..310,
 |{10},1..9,
 |{10},11..22,
 |{10},308..310,
 |{11},1..10,
 |{11},12..23,
 |{11},309..310,
 |{12},1..11,
 |{12},13..24,
 |{12},{310},
 |{13},1..12,
 |{13},14..25,
 |{14},2..13,
 |{14},15..26,
 |{15},3..14,
 |{15},16..27,
 |{16},4..15,
 |{16},17..28,
 |{17},5..16,
 |{17},18..29,
 |{18},6..17,
 |{18},19..30,
 |{19},7..18,
 |{19},20..31,
 |{20},8..19,
 |{20},21..32,
 |{21},9..20,
 |{21},22..33,
 |{22},10..21,
 |{22},23..34,
 |{23},11..22,
 |{23},24..35,
 |{24},12..23,
 |{24},25..36,
 |{25},13..24,
 |{25},26..37,
 |{26},14..25,
 |{26},27..38,
 |{27},15..26,
 |{27},28..39,
 |{28},16..27,
 |{28},29..40,
 |{29},17..28,
 |{29},30..41,
 |{30},18..29,
 |{30},31..42,
 |{31},19..30,
 |{31},32..43,
 |{32},20..31,
 |{32},33..44,
 |{33},21..32,
 |{33},34..45,
 |{34},22..33,
 |{34},35..46,
 |{35},23..34,
 |{35},36..47,
 |{36},24..35,
 |{36},37..48,
 |{37},25..36,
 |{37},38..49,
 |{38},26..37,
 |{38},39..50,
 |{39},27..38,
 |{39},40..51,
 |{40},28..39,
 |{40},41..52,
 |{41},29..40,
 |{41},42..53,
 |{42},30..41,
 |{42},43..54,
 |{43},31..42,
 |{43},44..55,
 |{44},32..43,
 |{44},45..56,
 |{45},33..44,
 |{45},46..57,
 |{46},34..45,
 |{46},47..58,
 |{47},35..46,
 |{47},48..59,
 |{48},36..47,
 |{48},49..60,
 |{49},37..48,
 |{49},50..61,
 |{50},38..49,
 |{50},51..62,
 |{51},39..50,
 |{51},52..63,
 |{52},40..51,
 |{52},53..64,
 |{53},41..52,
 |{53},54..65,
 |{54},42..53,
 |{54},55..66,
 |{55},43..54,
 |{55},56..67,
 |{56},44..55,
 |{56},57..68,
 |{57},45..56,
 |{57},58..69,
 |{58},46..57,
 |{58},59..70,
 |{59},47..58,
 |{59},60..71,
 |{60},48..59,
 |{60},61..72,
 |{61},49..60,
 |{61},62..73,
 |{62},50..61,
 |{62},63..74,
 |{63},51..62,
 |{63},64..75,
 |{64},52..63,
 |{64},65..76,
 |{65},53..64,
 |{65},66..77,
 |{66},54..65,
 |{66},67..78,
 |{67},55..66,
 |{67},68..79,
 |{68},56..67,
 |{68},69..80,
 |{69},57..68,
 |{69},70..81,
 |{70},58..69,
 |{70},71..82,
 |{71},59..70,
 |{71},72..83,
 |{72},60..71,
 |{72},73..84,
 |{73},61..72,
 |{73},74..85,
 |{74},62..73,
 |{74},75..86,
 |{75},63..74,
 |{75},76..87,
 |{76},64..75,
 |{76},77..88,
 |{77},65..76,
 |{77},78..89,
 |{78},66..77,
 |{78},79..90,
 |{79},67..78,
 |{79},80..91,
 |{80},68..79,
 |{80},81..92,
 |{81},69..80,
 |{81},82..93,
 |{82},70..81,
 |{82},83..94,
 |{83},71..82,
 |{83},84..95,
 |{84},72..83,
 |{84},85..96,
 |{85},73..84,
 |{85},86..97,
 |{86},74..85,
 |{86},87..98,
 |{87},75..86,
 |{87},88..99,
 |{88},76..87,
 |{88},89..100,
 |{89},77..88,
 |{89},90..101,
 |{90},78..89,
 |{90},91..102,
 |{91},79..90,
 |{91},92..103,
 |{92},80..91,
 |{92},93..104,
 |{93},81..92,
 |{93},94..105,
 |{94},82..93,
 |{94},95..106,
 |{95},83..94,
 |{95},96..107,
 |{96},84..95,
 |{96},97..108,
 |{97},85..96,
 |{97},98..109,
 |{98},86..97,
 |{98},99..110,
 |{99},87..98,
 |{99},100..111,
 |{100},88..99,
 |{100},101..112,
 |{101},89..100,
 |{101},102..113,
 |{102},90..101,
 |{102},103..114,
 |{103},91..102,
 |{103},104..115,
 |{104},92..103,
 |{104},105..116,
 |{105},93..104,
 |{105},106..117,
 |{106},94..105,
 |{106},107..118,
 |{107},95..106,
 |{107},108..119,
 |{108},96..107,
 |{108},109..120,
 |{109},97..108,
 |{109},110..121,
 |{110},98..109,
 |{110},111..122,
 |{111},99..110,
 |{111},112..123,
 |{112},100..111,
 |{112},113..124,
 |{113},101..112,
 |{113},114..125,
 |{114},102..113,
 |{114},115..126,
 |{115},103..114,
 |{115},116..127,
 |{116},104..115,
 |{116},117..128,
 |{117},105..116,
 |{117},118..129,
 |{118},106..117,
 |{118},119..130,
 |{119},107..118,
 |{119},120..131,
 |{120},108..119,
 |{120},121..132,
 |{121},109..120,
 |{121},122..133,
 |{122},110..121,
 |{122},123..134,
 |{123},111..122,
 |{123},124..135,
 |{124},112..123,
 |{124},125..136,
 |{125},113..124,
 |{125},126..137,
 |{126},114..125,
 |{126},127..138,
 |{127},115..126,
 |{127},128..139,
 |{128},116..127,
 |{128},129..140,
 |{129},117..128,
 |{129},130..141,
 |{130},118..129,
 |{130},131..142,
 |{131},119..130,
 |{131},132..143,
 |{132},120..131,
 |{132},133..144,
 |{133},121..132,
 |{133},134..145,
 |{134},122..133,
 |{134},135..146,
 |{135},123..134,
 |{135},136..147,
 |{136},124..135,
 |{136},137..148,
 |{137},125..136,
 |{137},138..149,
 |{138},126..137,
 |{138},139..150,
 |{139},127..138,
 |{139},140..151,
 |{140},128..139,
 |{140},141..152,
 |{141},129..140,
 |{141},142..153,
 |{142},130..141,
 |{142},143..154,
 |{143},131..142,
 |{143},144..155,
 |{144},132..143,
 |{144},145..156,
 |{145},133..144,
 |{145},146..157,
 |{146},134..145,
 |{146},147..158,
 |{147},135..146,
 |{147},148..159,
 |{148},136..147,
 |{148},149..160,
 |{149},137..148,
 |{149},150..161,
 |{150},138..149,
 |{150},151..162,
 |{151},139..150,
 |{151},152..163,
 |{152},140..151,
 |{152},153..164,
 |{153},141..152,
 |{153},154..165,
 |{154},142..153,
 |{154},155..166,
 |{155},143..154,
 |{155},156..167,
 |{156},144..155,
 |{156},157..168,
 |{157},145..156,
 |{157},158..169,
 |{158},146..157,
 |{158},159..170,
 |{159},147..158,
 |{159},160..171,
 |{160},148..159,
 |{160},161..172,
 |{161},149..160,
 |{161},162..173,
 |{162},150..161,
 |{162},163..174,
 |{163},151..162,
 |{163},164..175,
 |{164},152..163,
 |{164},165..176,
 |{165},153..164,
 |{165},166..177,
 |{166},154..165,
 |{166},167..178,
 |{167},155..166,
 |{167},168..179,
 |{168},156..167,
 |{168},169..180,
 |{169},157..168,
 |{169},170..181,
 |{170},158..169,
 |{170},171..182,
 |{171},159..170,
 |{171},172..183,
 |{172},160..171,
 |{172},173..184,
 |{173},161..172,
 |{173},174..185,
 |{174},162..173,
 |{174},175..186,
 |{175},163..174,
 |{175},176..187,
 |{176},164..175,
 |{176},177..188,
 |{177},165..176,
 |{177},178..189,
 |{178},166..177,
 |{178},179..190,
 |{179},167..178,
 |{179},180..191,
 |{180},168..179,
 |{180},181..192,
 |{181},169..180,
 |{181},182..193,
 |{182},170..181,
 |{182},183..194,
 |{183},171..182,
 |{183},184..195,
 |{184},172..183,
 |{184},185..196,
 |{185},173..184,
 |{185},186..197,
 |{186},174..185,
 |{186},187..198,
 |{187},175..186,
 |{187},188..199,
 |{188},176..187,
 |{188},189..200,
 |{189},177..188,
 |{189},190..201,
 |{190},178..189,
 |{190},191..202,
 |{191},179..190,
 |{191},192..203,
 |{192},180..191,
 |{192},193..204,
 |{193},181..192,
 |{193},194..205,
 |{194},182..193,
 |{194},195..206,
 |{195},183..194,
 |{195},196..207,
 |{196},184..195,
 |{196},197..208,
 |{197},185..196,
 |{197},198..209,
 |{198},186..197,
 |{198},199..210,
 |{199},187..198,
 |{199},200..211,
 |{200},188..199,
 |{200},201..212,
 |{201},189..200,
 |{201},202..213,
 |{202},190..201,
 |{202},203..214,
 |{203},191..202,
 |{203},204..215,
 |{204},192..203,
 |{204},205..216,
 |{205},193..204,
 |{205},206..217,
 |{206},194..205,
 |{206},207..218,
 |{207},195..206,
 |{207},208..219,
 |{208},196..207,
 |{208},209..220,
 |{209},197..208,
 |{209},210..221,
 |{210},198..209,
 |{210},211..222,
 |{211},199..210,
 |{211},212..223,
 |{212},200..211,
 |{212},213..224,
 |{213},201..212,
 |{213},214..225,
 |{214},202..213,
 |{214},215..226,
 |{215},203..214,
 |{215},216..227,
 |{216},204..215,
 |{216},217..228,
 |{217},205..216,
 |{217},218..229,
 |{218},206..217,
 |{218},219..230,
 |{219},207..218,
 |{219},220..231,
 |{220},208..219,
 |{220},221..232,
 |{221},209..220,
 |{221},222..233,
 |{222},210..221,
 |{222},223..234,
 |{223},211..222,
 |{223},224..235,
 |{224},212..223,
 |{224},225..236,
 |{225},213..224,
 |{225},226..237,
 |{226},214..225,
 |{226},227..238,
 |{227},215..226,
 |{227},228..239,
 |{228},216..227,
 |{228},229..240,
 |{229},217..228,
 |{229},230..241,
 |{230},218..229,
 |{230},231..242,
 |{231},219..230,
 |{231},232..243,
 |{232},220..231,
 |{232},233..244,
 |{233},221..232,
 |{233},234..245,
 |{234},222..233,
 |{234},235..246,
 |{235},223..234,
 |{235},236..247,
 |{236},224..235,
 |{236},237..248,
 |{237},225..236,
 |{237},238..249,
 |{238},226..237,
 |{238},239..250,
 |{239},227..238,
 |{239},240..251,
 |{240},228..239,
 |{240},241..252,
 |{241},229..240,
 |{241},242..253,
 |{242},230..241,
 |{242},243..254,
 |{243},231..242,
 |{243},244..255,
 |{244},232..243,
 |{244},245..256,
 |{245},233..244,
 |{245},246..257,
 |{246},234..245,
 |{246},247..258,
 |{247},235..246,
 |{247},248..259,
 |{248},236..247,
 |{248},249..260,
 |{249},237..248,
 |{249},250..261,
 |{250},238..249,
 |{250},251..262,
 |{251},239..250,
 |{251},252..263,
 |{252},240..251,
 |{252},253..264,
 |{253},241..252,
 |{253},254..265,
 |{254},242..253,
 |{254},255..266,
 |{255},243..254,
 |{255},256..267,
 |{256},244..255,
 |{256},257..268,
 |{257},245..256,
 |{257},258..269,
 |{258},246..257,
 |{258},259..270,
 |{259},247..258,
 |{259},260..271,
 |{260},248..259,
 |{260},261..272,
 |{261},249..260,
 |{261},262..273,
 |{262},250..261,
 |{262},263..274,
 |{263},251..262,
 |{263},264..275,
 |{264},252..263,
 |{264},265..276,
 |{265},253..264,
 |{265},266..277,
 |{266},254..265,
 |{266},267..278,
 |{267},255..266,
 |{267},268..279,
 |{268},256..267,
 |{268},269..280,
 |{269},257..268,
 |{269},270..281,
 |{270},258..269,
 |{270},271..282,
 |{271},259..270,
 |{271},272..283,
 |{272},260..271,
 |{272},273..284,
 |{273},261..272,
 |{273},274..285,
 |{274},262..273,
 |{274},275..286,
 |{275},263..274,
 |{275},276..287,
 |{276},264..275,
 |{276},277..288,
 |{277},265..276,
 |{277},278..289,
 |{278},266..277,
 |{278},279..290,
 |{279},267..278,
 |{279},280..291,
 |{280},268..279,
 |{280},281..292,
 |{281},269..280,
 |{281},282..293,
 |{282},270..281,
 |{282},283..294,
 |{283},271..282,
 |{283},284..295,
 |{284},272..283,
 |{284},285..296,
 |{285},273..284,
 |{285},286..297,
 |{286},274..285,
 |{286},287..298,
 |{287},275..286,
 |{287},288..299,
 |{288},276..287,
 |{288},289..300,
 |{289},277..288,
 |{289},290..301,
 |{290},278..289,
 |{290},291..302,
 |{291},279..290,
 |{291},292..303,
 |{292},280..291,
 |{292},293..304,
 |{293},281..292,
 |{293},294..305,
 |{294},282..293,
 |{294},295..306,
 |{295},283..294,
 |{295},296..307,
 |{296},284..295,
 |{296},297..308,
 |{297},285..296,
 |{297},298..309,
 |{298},286..297,
 |{298},299..310,
 |{299},287..298,
 |{299},300..310,
 |{299},{1},
 |{300},288..299,
 |{300},301..310,
 |{300},1..2,
 |{301},289..300,
 |{301},302..310,
 |{301},1..3,
 |{302},290..301,
 |{302},303..310,
 |{302},1..4,
 |{303},291..302,
 |{303},304..310,
 |{303},1..5,
 |{304},292..303,
 |{304},305..310,
 |{304},1..6,
 |{305},293..304,
 |{305},306..310,
 |{305},1..7,
 |{306},294..305,
 |{306},307..310,
 |{306},1..8,
 |{307},295..306,
 |{307},308..310,
 |{307},1..9,
 |{308},296..307,
 |{308},309..310,
 |{308},1..10,
 |{309},297..308,
 |{309},{310},
 |{309},1..11,
 |{310},298..309,
 |{310},1..12 |];

t = 1069;

indexes = [|
    0,44,
  | 0,94,
  | 0,119,
  | 0,129,
  | 0,167,
  | 0,234,
  | 0,297,
  | 1,88,
  | 1,105,
  | 1,110,
  | 2,5,
  | 2,51,
  | 2,68,
  | 2,178,
  | 3,13,
  | 3,28,
  | 3,58,
  | 3,65,
  | 3,118,
  | 3,131,
  | 3,140,
  | 3,224,
  | 4,67,
  | 4,85,
  | 4,106,
  | 4,173,
  | 4,188,
  | 4,277,
  | 4,295,
  | 4,298,
  | 5,68,
  | 5,94,
  | 5,167,
  | 6,76,
  | 6,77,
  | 6,137,
  | 6,209,
  | 6,287,
  | 7,48,
  | 7,59,
  | 7,70,
  | 7,100,
  | 7,120,
  | 7,206,
  | 7,253,
  | 7,254,
  | 8,9,
  | 8,116,
  | 8,132,
  | 8,154,
  | 8,173,
  | 8,182,
  | 8,241,
  | 9,106,
  | 9,111,
  | 9,116,
  | 9,125,
  | 9,173,
  | 9,231,
  | 9,289,
  | 10,13,
  | 10,17,
  | 10,65,
  | 10,74,
  | 10,122,
  | 10,212,
  | 10,293,
  | 10,300,
  | 11,77,
  | 11,98,
  | 11,115,
  | 11,201,
  | 11,221,
  | 11,235,
  | 11,237,
  | 11,247,
  | 12,77,
  | 12,95,
  | 12,115,
  | 12,137,
  | 12,145,
  | 12,198,
  | 12,209,
  | 12,247,
  | 13,28,
  | 13,65,
  | 13,74,
  | 13,122,
  | 13,257,
  | 13,293,
  | 14,18,
  | 14,21,
  | 14,99,
  | 14,100,
  | 14,200,
  | 14,207,
  | 14,243,
  | 14,265,
  | 15,24,
  | 15,38,
  | 15,130,
  | 15,135,
  | 15,161,
  | 15,194,
  | 15,204,
  | 15,274,
  | 16,27,
  | 16,32,
  | 16,55,
  | 16,170,
  | 16,181,
  | 16,230,
  | 16,303,
  | 16,307,
  | 17,74,
  | 17,80,
  | 17,193,
  | 17,212,
  | 17,217,
  | 17,226,
  | 17,268,
  | 18,21,
  | 18,99,
  | 18,113,
  | 18,142,
  | 18,148,
  | 18,258,
  | 18,305,
  | 19,36,
  | 19,117,
  | 19,160,
  | 19,197,
  | 19,215,
  | 19,259,
  | 19,270,
  | 19,306,
  | 20,117,
  | 20,165,
  | 20,169,
  | 20,174,
  | 20,185,
  | 20,238,
  | 20,273,
  | 20,306,
  | 21,23,
  | 21,99,
  | 21,113,
  | 21,200,
  | 21,243,
  | 21,258,
  | 22,23,
  | 22,96,
  | 22,143,
  | 22,243,
  | 22,284,
  | 23,143,
  | 23,243,
  | 23,258,
  | 24,125,
  | 24,130,
  | 24,146,
  | 24,161,
  | 24,187,
  | 24,266,
  | 24,289,
  | 25,61,
  | 25,72,
  | 25,85,
  | 25,187,
  | 25,227,
  | 25,236,
  | 25,266,
  | 25,298,
  | 26,46,
  | 26,49,
  | 26,186,
  | 26,251,
  | 26,271,
  | 27,32,
  | 27,40,
  | 27,55,
  | 27,101,
  | 27,170,
  | 27,191,
  | 27,303,
  | 28,65,
  | 28,114,
  | 28,118,
  | 28,131,
  | 28,257,
  | 28,293,
  | 29,51,
  | 29,67,
  | 29,73,
  | 29,87,
  | 29,178,
  | 29,190,
  | 29,277,
  | 29,295,
  | 30,41,
  | 30,133,
  | 30,147,
  | 30,164,
  | 30,165,
  | 31,75,
  | 31,104,
  | 31,124,
  | 31,128,
  | 31,136,
  | 32,53,
  | 32,55,
  | 32,86,
  | 32,139,
  | 32,181,
  | 32,230,
  | 33,144,
  | 33,151,
  | 33,221,
  | 33,237,
  | 33,272,
  | 33,290,
  | 33,301,
  | 33,308,
  | 34,47,
  | 34,52,
  | 34,129,
  | 34,234,
  | 34,240,
  | 35,56,
  | 35,71,
  | 35,152,
  | 35,184,
  | 35,208,
  | 36,42,
  | 36,82,
  | 36,117,
  | 36,174,
  | 36,177,
  | 36,197,
  | 36,214,
  | 37,43,
  | 37,44,
  | 37,163,
  | 37,173,
  | 37,188,
  | 37,241,
  | 37,277,
  | 38,130,
  | 38,146,
  | 38,194,
  | 38,255,
  | 39,146,
  | 39,203,
  | 39,249,
  | 39,255,
  | 39,267,
  | 40,101,
  | 40,275,
  | 40,299,
  | 40,303,
  | 41,133,
  | 41,164,
  | 42,82,
  | 42,117,
  | 42,133,
  | 42,164,
  | 42,165,
  | 42,174,
  | 42,177,
  | 43,44,
  | 43,68,
  | 43,94,
  | 43,178,
  | 43,188,
  | 43,277,
  | 44,94,
  | 44,163,
  | 44,297,
  | 45,160,
  | 45,195,
  | 45,215,
  | 45,232,
  | 45,259,
  | 46,186,
  | 46,256,
  | 46,271,
  | 46,286,
  | 47,49,
  | 47,52,
  | 47,83,
  | 47,93,
  | 47,234,
  | 47,251,
  | 47,297,
  | 48,70,
  | 48,100,
  | 48,120,
  | 48,126,
  | 48,150,
  | 48,200,
  | 48,253,
  | 49,52,
  | 49,251,
  | 49,271,
  | 50,109,
  | 50,110,
  | 50,153,
  | 50,245,
  | 51,68,
  | 51,73,
  | 51,178,
  | 52,234,
  | 52,251,
  | 53,55,
  | 53,62,
  | 53,86,
  | 53,162,
  | 53,172,
  | 53,191,
  | 53,199,
  | 54,195,
  | 54,197,
  | 54,214,
  | 54,215,
  | 54,220,
  | 55,86,
  | 55,101,
  | 55,172,
  | 55,191,
  | 56,58,
  | 56,71,
  | 56,140,
  | 56,152,
  | 56,184,
  | 56,208,
  | 56,224,
  | 57,180,
  | 57,211,
  | 57,260,
  | 57,262,
  | 57,292,
  | 58,65,
  | 58,90,
  | 58,122,
  | 58,140,
  | 58,208,
  | 58,296,
  | 59,103,
  | 59,120,
  | 59,127,
  | 59,206,
  | 59,227,
  | 59,236,
  | 59,269,
  | 60,111,
  | 60,176,
  | 60,219,
  | 60,267,
  | 60,275,
  | 60,299,
  | 61,85,
  | 61,103,
  | 61,227,
  | 61,236,
  | 61,280,
  | 61,295,
  | 61,298,
  | 62,86,
  | 62,139,
  | 62,144,
  | 62,186,
  | 62,199,
  | 62,256,
  | 62,308,
  | 63,79,
  | 63,123,
  | 63,205,
  | 63,216,
  | 63,233,
  | 64,123,
  | 64,149,
  | 64,205,
  | 64,206,
  | 64,228,
  | 64,229,
  | 64,254,
  | 64,269,
  | 65,90,
  | 65,122,
  | 65,140,
  | 66,78,
  | 66,89,
  | 66,121,
  | 66,202,
  | 66,263,
  | 66,276,
  | 67,85,
  | 67,87,
  | 67,178,
  | 67,188,
  | 67,277,
  | 67,295,
  | 68,94,
  | 68,178,
  | 68,277,
  | 69,107,
  | 69,139,
  | 69,181,
  | 69,201,
  | 69,210,
  | 69,211,
  | 69,230,
  | 69,262,
  | 70,72,
  | 70,120,
  | 70,126,
  | 70,150,
  | 70,227,
  | 70,274,
  | 71,104,
  | 71,136,
  | 71,152,
  | 72,120,
  | 72,126,
  | 72,161,
  | 72,227,
  | 72,266,
  | 72,274,
  | 73,87,
  | 73,178,
  | 73,190,
  | 74,81,
  | 74,212,
  | 74,226,
  | 74,268,
  | 74,293,
  | 75,124,
  | 75,128,
  | 75,158,
  | 75,159,
  | 75,180,
  | 75,239,
  | 75,292,
  | 76,97,
  | 76,114,
  | 76,137,
  | 76,209,
  | 77,168,
  | 77,209,
  | 77,235,
  | 77,247,
  | 77,287,
  | 78,91,
  | 78,121,
  | 78,202,
  | 78,223,
  | 78,279,
  | 79,123,
  | 79,134,
  | 79,175,
  | 79,202,
  | 79,229,
  | 79,233,
  | 79,279,
  | 80,112,
  | 80,189,
  | 80,193,
  | 80,212,
  | 80,217,
  | 80,226,
  | 80,250,
  | 81,257,
  | 81,268,
  | 81,293,
  | 81,302,
  | 82,133,
  | 82,164,
  | 82,177,
  | 83,84,
  | 83,93,
  | 83,138,
  | 83,234,
  | 83,251,
  | 83,297,
  | 84,132,
  | 84,138,
  | 84,154,
  | 84,163,
  | 84,241,
  | 84,297,
  | 85,106,
  | 85,280,
  | 85,295,
  | 85,298,
  | 86,139,
  | 86,199,
  | 86,230,
  | 86,308,
  | 87,190,
  | 87,213,
  | 87,280,
  | 87,295,
  | 87,304,
  | 88,105,
  | 88,110,
  | 88,121,
  | 88,153,
  | 88,263,
  | 89,171,
  | 89,175,
  | 89,202,
  | 89,261,
  | 89,276,
  | 89,309,
  | 90,122,
  | 90,141,
  | 90,208,
  | 90,218,
  | 90,296,
  | 90,300,
  | 91,105,
  | 91,121,
  | 91,223,
  | 92,141,
  | 92,196,
  | 92,218,
  | 92,248,
  | 92,252,
  | 92,283,
  | 92,294,
  | 92,300,
  | 93,138,
  | 93,162,
  | 93,172,
  | 93,242,
  | 93,251,
  | 93,271,
  | 94,167,
  | 95,115,
  | 95,145,
  | 95,158,
  | 95,179,
  | 95,198,
  | 95,239,
  | 95,247,
  | 96,126,
  | 96,135,
  | 96,143,
  | 96,150,
  | 96,204,
  | 96,274,
  | 96,284,
  | 97,114,
  | 97,137,
  | 97,257,
  | 97,302,
  | 98,107,
  | 98,115,
  | 98,159,
  | 98,201,
  | 98,221,
  | 98,239,
  | 98,247,
  | 99,142,
  | 99,207,
  | 99,264,
  | 99,265,
  | 99,305,
  | 100,150,
  | 100,155,
  | 100,200,
  | 100,207,
  | 100,253,
  | 101,191,
  | 101,275,
  | 101,291,
  | 101,299,
  | 101,303,
  | 102,108,
  | 102,149,
  | 102,166,
  | 102,205,
  | 102,216,
  | 103,127,
  | 103,166,
  | 103,225,
  | 103,236,
  | 103,280,
  | 103,304,
  | 104,124,
  | 104,136,
  | 104,152,
  | 104,158,
  | 104,179,
  | 104,224,
  | 105,121,
  | 106,173,
  | 106,187,
  | 106,188,
  | 106,289,
  | 106,298,
  | 107,159,
  | 107,180,
  | 107,201,
  | 107,210,
  | 107,211,
  | 107,262,
  | 108,149,
  | 108,166,
  | 108,225,
  | 108,281,
  | 109,142,
  | 109,148,
  | 109,245,
  | 110,153,
  | 111,116,
  | 111,219,
  | 111,231,
  | 111,249,
  | 111,267,
  | 112,156,
  | 112,217,
  | 112,238,
  | 112,250,
  | 113,142,
  | 113,148,
  | 113,258,
  | 114,118,
  | 114,137,
  | 114,145,
  | 114,257,
  | 114,302,
  | 115,158,
  | 115,159,
  | 115,239,
  | 115,247,
  | 116,173,
  | 116,182,
  | 116,219,
  | 116,231,
  | 117,174,
  | 117,197,
  | 117,270,
  | 117,306,
  | 118,131,
  | 118,137,
  | 118,145,
  | 118,198,
  | 118,257,
  | 119,129,
  | 119,167,
  | 119,240,
  | 119,278,
  | 120,206,
  | 120,227,
  | 120,236,
  | 121,263,
  | 122,212,
  | 122,218,
  | 122,300,
  | 123,175,
  | 123,205,
  | 123,216,
  | 123,229,
  | 123,233,
  | 124,128,
  | 124,136,
  | 124,158,
  | 124,179,
  | 124,239,
  | 125,130,
  | 125,146,
  | 125,187,
  | 125,231,
  | 125,249,
  | 125,289,
  | 126,143,
  | 126,150,
  | 126,204,
  | 126,274,
  | 127,149,
  | 127,166,
  | 127,206,
  | 127,225,
  | 127,236,
  | 127,269,
  | 128,180,
  | 128,292,
  | 129,167,
  | 129,234,
  | 129,240,
  | 129,278,
  | 129,297,
  | 130,146,
  | 130,161,
  | 130,194,
  | 130,255,
  | 131,140,
  | 131,145,
  | 131,179,
  | 131,198,
  | 131,224,
  | 132,138,
  | 132,154,
  | 132,163,
  | 132,173,
  | 132,182,
  | 132,241,
  | 133,164,
  | 134,223,
  | 134,233,
  | 134,279,
  | 135,194,
  | 135,204,
  | 135,284,
  | 136,152,
  | 137,145,
  | 137,209,
  | 138,154,
  | 138,242,
  | 139,210,
  | 139,230,
  | 139,301,
  | 139,308,
  | 140,152,
  | 140,208,
  | 140,224,
  | 141,192,
  | 141,218,
  | 141,246,
  | 141,282,
  | 141,283,
  | 141,296,
  | 142,148,
  | 142,245,
  | 142,305,
  | 143,150,
  | 143,200,
  | 143,243,
  | 143,284,
  | 144,256,
  | 144,272,
  | 144,286,
  | 144,290,
  | 144,301,
  | 144,308,
  | 145,198,
  | 145,209,
  | 146,231,
  | 146,249,
  | 146,255,
  | 147,164,
  | 147,165,
  | 147,169,
  | 147,285,
  | 149,166,
  | 149,205,
  | 149,216,
  | 149,269,
  | 150,200,
  | 150,243,
  | 151,168,
  | 151,235,
  | 151,237,
  | 151,272,
  | 152,179,
  | 152,224,
  | 153,222,
  | 153,245,
  | 153,263,
  | 154,182,
  | 154,242,
  | 154,291,
  | 155,171,
  | 155,207,
  | 155,228,
  | 155,253,
  | 155,254,
  | 155,265,
  | 155,309,
  | 156,169,
  | 156,238,
  | 156,250,
  | 156,285,
  | 157,160,
  | 157,185,
  | 157,196,
  | 157,244,
  | 157,248,
  | 157,252,
  | 157,270,
  | 157,306,
  | 158,179,
  | 158,198,
  | 158,239,
  | 159,180,
  | 159,201,
  | 159,211,
  | 159,239,
  | 160,232,
  | 160,244,
  | 160,259,
  | 160,270,
  | 160,288,
  | 161,187,
  | 161,204,
  | 161,266,
  | 161,274,
  | 162,172,
  | 162,186,
  | 162,199,
  | 162,242,
  | 162,251,
  | 162,271,
  | 163,241,
  | 163,297,
  | 164,165,
  | 164,174,
  | 165,169,
  | 165,174,
  | 165,285,
  | 166,225,
  | 166,269,
  | 166,281,
  | 168,235,
  | 168,237,
  | 168,287,
  | 169,174,
  | 169,238,
  | 169,273,
  | 169,285,
  | 170,181,
  | 170,303,
  | 170,307,
  | 171,207,
  | 171,228,
  | 171,261,
  | 171,264,
  | 171,265,
  | 171,309,
  | 172,191,
  | 172,199,
  | 172,242,
  | 172,291,
  | 173,188,
  | 173,241,
  | 173,289,
  | 174,306,
  | 175,202,
  | 175,228,
  | 175,229,
  | 175,279,
  | 175,309,
  | 176,203,
  | 176,267,
  | 176,299,
  | 177,197,
  | 177,214,
  | 178,277,
  | 179,198,
  | 179,224,
  | 180,211,
  | 180,239,
  | 180,292,
  | 181,230,
  | 181,260,
  | 181,262,
  | 181,307,
  | 182,219,
  | 182,291,
  | 183,244,
  | 183,246,
  | 183,252,
  | 183,283,
  | 183,288,
  | 184,192,
  | 184,208,
  | 184,296,
  | 185,189,
  | 185,196,
  | 185,248,
  | 185,270,
  | 185,273,
  | 185,306,
  | 186,199,
  | 186,256,
  | 186,271,
  | 186,286,
  | 187,266,
  | 187,289,
  | 187,298,
  | 188,241,
  | 188,277,
  | 189,193,
  | 189,238,
  | 189,248,
  | 189,250,
  | 189,273,
  | 189,294,
  | 190,213,
  | 190,304,
  | 191,242,
  | 191,275,
  | 191,291,
  | 192,208,
  | 192,282,
  | 192,296,
  | 193,212,
  | 193,248,
  | 193,250,
  | 193,294,
  | 193,300,
  | 194,204,
  | 195,215,
  | 195,220,
  | 195,259,
  | 196,244,
  | 196,248,
  | 196,252,
  | 196,283,
  | 196,294,
  | 197,214,
  | 197,215,
  | 197,259,
  | 198,224,
  | 199,256,
  | 199,271,
  | 200,207,
  | 200,243,
  | 201,210,
  | 201,221,
  | 201,301,
  | 202,279,
  | 202,309,
  | 203,249,
  | 203,267,
  | 204,274,
  | 204,284,
  | 205,216,
  | 205,229,
  | 205,269,
  | 206,253,
  | 206,254,
  | 206,269,
  | 207,253,
  | 207,265,
  | 208,296,
  | 209,247,
  | 209,287,
  | 210,221,
  | 210,230,
  | 210,301,
  | 210,308,
  | 211,260,
  | 211,262,
  | 211,292,
  | 212,294,
  | 212,300,
  | 213,225,
  | 213,281,
  | 213,304,
  | 214,215,
  | 215,220,
  | 215,259,
  | 217,226,
  | 217,250,
  | 218,283,
  | 218,294,
  | 218,296,
  | 218,300,
  | 219,275,
  | 219,291,
  | 221,235,
  | 221,237,
  | 221,301,
  | 222,245,
  | 222,263,
  | 222,264,
  | 222,276,
  | 222,305,
  | 223,279,
  | 225,280,
  | 225,281,
  | 225,304,
  | 226,268,
  | 227,236,
  | 227,266,
  | 228,229,
  | 228,253,
  | 228,254,
  | 228,309,
  | 229,254,
  | 229,309,
  | 230,262,
  | 231,249,
  | 231,267,
  | 231,289,
  | 232,244,
  | 232,259,
  | 232,288,
  | 233,279,
  | 234,240,
  | 234,297,
  | 235,237,
  | 235,247,
  | 235,287,
  | 236,280,
  | 237,272,
  | 237,301,
  | 238,250,
  | 238,273,
  | 238,285,
  | 240,278,
  | 242,291,
  | 243,258,
  | 244,252,
  | 244,270,
  | 244,288,
  | 245,305,
  | 246,252,
  | 246,282,
  | 246,283,
  | 248,273,
  | 248,294,
  | 249,255,
  | 249,267,
  | 250,273,
  | 251,271,
  | 252,283,
  | 252,288,
  | 253,254,
  | 254,269,
  | 256,286,
  | 256,290,
  | 256,308,
  | 257,293,
  | 257,302,
  | 259,270,
  | 260,262,
  | 260,307,
  | 261,264,
  | 261,265,
  | 261,276,
  | 261,309,
  | 262,307,
  | 263,276,
  | 264,265,
  | 264,276,
  | 264,305,
  | 265,305,
  | 266,274,
  | 266,298,
  | 268,293,
  | 270,306,
  | 272,290,
  | 273,306,
  | 275,291,
  | 275,299,
  | 280,295,
  | 280,304,
  | 281,304,
  | 282,283,
  | 282,296,
  | 286,290,
  | 289,298,
  | 293,302,
  | 294,300,
  | 295,304,
  | 301,308 |];

